p edge 100 458
e 1 12
e 1 14
e 1 22
e 1 34
e 1 42
e 1 44
e 1 50
e 1 52
e 1 77
e 1 81
e 1 92
e 1 94
e 1 99
e 2 3
e 2 7
e 2 14
e 2 23
e 2 32
e 2 52
e 2 56
e 2 58
e 2 61
e 2 76
e 2 86
e 3 5
e 3 11
e 3 24
e 3 36
e 3 40
e 3 45
e 3 62
e 3 70
e 3 80
e 3 82
e 3 84
e 4 18
e 4 24
e 4 25
e 4 32
e 4 34
e 4 43
e 4 44
e 4 48
e 4 61
e 4 64
e 4 70
e 4 72
e 4 75
e 4 78
e 5 19
e 5 26
e 5 72
e 5 79
e 6 20
e 6 34
e 6 38
e 6 59
e 6 86
e 6 95
e 7 25
e 7 55
e 7 60
e 7 79
e 8 28
e 8 31
e 8 53
e 8 60
e 8 63
e 8 68
e 8 69
e 8 81
e 8 96
e 9 32
e 9 36
e 9 41
e 9 46
e 9 53
e 9 55
e 9 69
e 9 70
e 9 73
e 9 80
e 9 84
e 10 15
e 10 19
e 10 22
e 10 24
e 10 32
e 10 36
e 10 51
e 10 61
e 10 68
e 10 83
e 11 16
e 11 24
e 11 35
e 11 37
e 11 44
e 11 48
e 11 49
e 11 53
e 11 76
e 11 81
e 11 91
e 12 20
e 12 24
e 12 25
e 12 49
e 12 53
e 12 56
e 12 58
e 12 63
e 12 73
e 12 78
e 13 21
e 13 27
e 13 34
e 13 36
e 13 46
e 13 53
e 13 56
e 13 75
e 13 82
e 13 83
e 14 21
e 14 32
e 14 41
e 14 44
e 14 54
e 14 57
e 14 58
e 14 59
e 14 65
e 14 66
e 14 76
e 15 16
e 15 27
e 15 68
e 15 70
e 15 78
e 15 79
e 16 18
e 16 26
e 16 32
e 16 34
e 16 40
e 16 42
e 16 46
e 16 53
e 16 57
e 16 81
e 16 83
e 17 32
e 17 36
e 17 52
e 17 56
e 17 58
e 17 59
e 17 69
e 17 75
e 17 79
e 17 94
e 17 98
e 18 27
e 18 42
e 18 48
e 18 54
e 18 58
e 18 60
e 18 77
e 18 88
e 18 90
e 18 91
e 19 21
e 19 29
e 19 37
e 19 38
e 19 60
e 19 63
e 19 70
e 19 72
e 19 77
e 19 91
e 20 38
e 20 43
e 20 48
e 20 51
e 20 64
e 20 72
e 21 30
e 21 34
e 21 37
e 21 40
e 21 41
e 21 48
e 21 64
e 21 75
e 21 77
e 21 78
e 21 82
e 21 83
e 22 65
e 22 71
e 22 76
e 22 78
e 23 45
e 23 47
e 23 53
e 23 55
e 23 56
e 23 71
e 23 76
e 23 92
e 24 27
e 24 28
e 24 33
e 24 38
e 24 44
e 24 48
e 24 51
e 24 76
e 24 83
e 24 91
e 24 93
e 25 34
e 25 50
e 25 56
e 25 72
e 26 28
e 26 61
e 26 70
e 26 76
e 26 95
e 26 98
e 27 28
e 27 64
e 27 68
e 27 76
e 27 91
e 27 96
e 28 32
e 28 43
e 28 45
e 28 50
e 28 92
e 29 50
e 29 53
e 29 71
e 29 77
e 29 84
e 30 41
e 30 56
e 30 69
e 30 70
e 31 43
e 31 48
e 31 58
e 31 59
e 31 66
e 31 77
e 31 87
e 32 38
e 32 42
e 32 45
e 32 60
e 32 76
e 32 99
e 33 62
e 33 68
e 33 72
e 33 86
e 34 53
e 34 57
e 34 76
e 34 83
e 35 42
e 35 49
e 35 51
e 35 70
e 35 71
e 35 75
e 35 78
e 35 99
e 36 74
e 37 45
e 37 46
e 37 63
e 37 65
e 37 82
e 37 91
e 38 39
e 38 58
e 38 72
e 38 87
e 38 99
e 39 45
e 39 50
e 39 73
e 39 83
e 39 99
e 40 44
e 40 76
e 40 90
e 40 99
e 41 45
e 41 85
e 42 54
e 42 62
e 42 68
e 42 70
e 42 73
e 42 92
e 43 51
e 43 57
e 43 77
e 43 99
e 44 69
e 44 70
e 44 76
e 44 80
e 44 91
e 44 99
e 45 70
e 46 73
e 46 75
e 46 88
e 47 50
e 47 54
e 47 62
e 47 100
e 48 65
e 48 87
e 49 61
e 49 69
e 49 80
e 49 87
e 49 91
e 49 94
e 49 95
e 49 99
e 50 64
e 50 75
e 50 79
e 50 84
e 50 100
e 51 53
e 51 56
e 51 73
e 51 82
e 51 91
e 52 65
e 52 99
e 53 57
e 53 70
e 54 69
e 54 84
e 54 92
e 54 96
e 55 65
e 55 73
e 55 79
e 56 83
e 56 89
e 56 91
e 56 97
e 56 98
e 57 65
e 57 67
e 57 84
e 57 96
e 58 69
e 58 74
e 58 80
e 58 90
e 58 98
e 59 62
e 59 66
e 59 71
e 59 73
e 59 81
e 59 92
e 60 66
e 60 74
e 60 88
e 60 100
e 61 66
e 61 74
e 61 78
e 61 91
e 61 95
e 62 78
e 62 88
e 62 90
e 63 76
e 63 83
e 63 90
e 63 99
e 63 100
e 64 91
e 64 92
e 65 70
e 65 77
e 65 86
e 65 100
e 66 71
e 66 75
e 66 85
e 66 93
e 67 70
e 68 71
e 68 93
e 68 99
e 68 100
e 70 77
e 70 81
e 70 89
e 70 91
e 70 94
e 71 73
e 71 80
e 71 86
e 71 90
e 71 91
e 71 96
e 72 81
e 72 86
e 73 93
e 74 96
e 75 94
e 76 79
e 76 86
e 76 93
e 77 86
e 77 98
e 79 83
e 79 88
e 79 98
e 80 82
e 80 89
e 80 97
e 81 85
e 81 86
e 82 88
e 83 86
e 84 99
e 86 87
e 86 99
e 86 100
e 87 100
e 88 90
e 88 96
e 90 94
e 90 98
e 91 93
e 92 98
e 92 100
e 93 99
e 97 100
